%chk=/home/unibas/boittier/RDKit_G2/O.pdb/SCAN_1_2_6_8_S_17_20.0/17_SCAN_1_2_6_8_F/O.pdb.chk
%nproc=8
%mem=16GB
#p wB97XD/6-31+G Opt=ModRedun

O.pdb

0 1
C         1.782306       -0.560598        0.083436
C         0.486932       0.172462        -0.074462
H         1.845395       -0.945089        1.106818
H         2.615047       0.119561        -0.095076
H         1.833941       -1.413251        -0.596738
O         -0.571927       -0.687017        -0.189058
O         0.340814       1.393882        -0.021701
C         -1.901593       -0.157873        0.111588
H         -1.901824       0.292312        1.106345
H         -2.559828       -1.022121        0.070472
H         -2.189692       0.589722        -0.629121

1 2 6 8 F
 