%chk=/home/unibas/boittier/RDKit_G2/L.pdb/SCAN_1_2_3_4_S_17_20.0/5_SCAN_1_2_3_4_F/L.pdb.chk
%nproc=8
%mem=16GB
#p wB97XD/6-31+G Opt=ModRedun

L.pdb

0 1
C         1.628495       0.377150        -0.069354
C         0.634602       -0.484472        0.187261
C         -0.764875       -0.313993        -0.294211
O         -1.608252       0.426466        0.232464
H         -1.059184       -0.946664        -1.151920
H         2.645160       0.185257        0.259678
H         1.457003       1.307305        -0.604854
H         0.833706       -1.429737        0.695209

1 2 3 4 F
 