%chk=/home/unibas/boittier/RDKit_G2/L.pdb/SCAN_1_2_3_4_S_17_20.0/17_SCAN_1_2_3_4_F/L.pdb.chk
%nproc=8
%mem=16GB
#p wB97XD/6-31+G Opt=ModRedun

L.pdb

0 1
C         1.767206       0.138911        -0.071259
C         0.564894       -0.440494        0.100154
C         -0.672180       0.353045        0.098052
O         -1.801293       -0.126245        -0.106751
H         -0.549492       1.442667        0.236163
H         2.681248       -0.440901        -0.147507
H         1.870368       1.220037        -0.142880
H         0.448699       -1.520620        0.146546

1 2 3 4 F
 