%chk=/home/unibas/boittier/RDKit_G2/O.pdb/SCAN_1_2_6_8_S_17_20.0/3_SCAN_1_2_6_8_F/O.pdb.chk
%nproc=8
%mem=16GB
#p wB97XD/6-31+G Opt=ModRedun

O.pdb

0 1
C         1.602150       -0.778744        -0.166910
C         0.512602       0.203280        0.133177
H         1.677404       -1.528328        0.624430
H         2.553824       -0.263203        -0.294704
H         1.344653       -1.304206        -1.093508
O         -0.662725       -0.415219        0.525550
O         0.584935       1.417002        -0.029261
C         -1.863181       -0.177203        -0.274210
H         -2.021768       0.893908        -0.417649
H         -2.681367       -0.610754        0.295677
H         -1.759857       -0.685682        -1.236899

1 2 6 8 F
 