%chk=/home/unibas/boittier/RDKit_G2/B.pdb/SCAN_1_2_3_4_S_17_20.0/9_SCAN_1_2_3_4_F/B.pdb.chk
%nproc=8
%mem=16GB
#p wB97XD/6-31+G Opt=ModRedun

B.pdb

0 1
C         -0.856191       -1.338411        0.000066
C         -0.462715       -0.062045        0.000073
C         0.860230       0.560080        0.000095
C         2.038078       -0.088754        -0.000098
H         -1.906721       -1.599647        0.000128
H         -0.129884       -2.142150        -0.000123
F         -1.485113       0.931548        -0.000120
H         0.839464       1.646657        0.000518
H         2.112401       -1.172741        -0.000243
H         2.974351       0.458733        -0.000016

1 2 3 4 F
 