%chk=/home/unibas/boittier/RDKit_G2/N.pdb/SCAN_1_2_6_8_S_17_20.0/5_SCAN_1_2_6_8_F/N.pdb.chk
%nproc=8
%mem=16GB
#p wB97XD/6-31+G Opt=ModRedun

N.pdb

0 1
C         2.797154       0.639207        0.000331
C         1.481008       -0.093249        0.002493
H         2.915015       1.204576        -0.931913
H         3.613098       -0.079079        0.086586
H         2.849161       1.354742        0.828325
C         0.246606       0.800091        0.002854
O         1.407218       -1.321975        0.000138
C         -1.077292       0.088029        -0.000114
H         0.276452       1.456334        -0.874091
H         0.273653       1.448972        0.885299
F         -1.268192       -0.698267        -1.123742
F         -2.116392       1.027338        0.004341
F         -1.267636       -0.708428        1.116213

1 2 6 8 F
 