%chk=/home/unibas/boittier/RDKit_G2/B.pdb/SCAN_1_2_3_4_S_17_20.0/B.pdb.chk
%nproc=8
%mem=16GB
#p B3LYP/6-31+G Opt=ModRedun

B.pdb

0 1
C -4.7510528028 0.6159748425 0.0331665539
C -3.7046438855 1.447762303 0.0846758086
C -2.294187311 1.1545376663 -0.1146196466
C -1.2992762747 2.0569607752 -0.0442314705
H -5.7605495672 0.9678707854 0.2028650877
H -4.6023444045 -0.4356593895 -0.1818065367
F -3.9684465665 2.8138798587 0.3712093443
H -2.077855665 0.1114867905 -0.3350177982
H -1.4899501309 3.102293548 0.1739246006
H -0.2676933919 1.7628928198 -0.205165943

1 2 3 4 S 17 20.0
 