%chk=/home/unibas/boittier/RDKit_G2/B.pdb/SCAN_1_2_3_4_S_17_20.0/3_SCAN_1_2_3_4_F/B.pdb.chk
%nproc=8
%mem=16GB
#p wB97XD/6-31+G Opt=ModRedun

B.pdb

0 1
C         -1.554495       -0.850373        0.234511
C         -0.512684       -0.096104        -0.115503
C         0.883015       -0.484232        -0.381986
C         1.933915       -0.014098        0.308278
H         -2.518900       -0.410397        0.457309
H         -1.456242       -1.928375        0.286780
F         -0.701569       1.320605        -0.118216
H         1.026938       -1.260520        -1.131732
H         1.822472       0.744106        1.078004
H         2.941352       -0.361410        0.101777

1 2 3 4 F
 