%chk=/home/unibas/boittier/RDKit_G2/O.pdb/OPT_wB97XD_6-31+G/O.pdb.chk
%nproc=8
%mem=16GB
#p wB97XD/6-31+G Opt Freq=NoRaman

O.pdb

0 1
C	-3.095	1.547	1.371
C	-2.542	1.225	0.01
H	-3.795	0.76	1.676
H	-3.598	2.519	1.336
H	-2.307	1.621	2.12
O	-1.116	0.711	-0.077
O	-3.239	1.329	-1.009
C	-1.03	-0.801	-0.001
H	-1.391	-1.163	0.967
H	0.005	-1.135	-0.121
H	-1.632	-1.27	-0.786

