%chk=/home/unibas/boittier/RDKit_G2/O.pdb/SCAN_1_2_6_8_S_17_20.0/9_SCAN_1_2_6_8_F/O.pdb.chk
%nproc=8
%mem=16GB
#p wB97XD/6-31+G Opt=ModRedun

O.pdb

0 1
C         0.670740       -1.349107        0.000761
C         0.613427       0.157336        -0.000024
H         0.188635       -1.765037        0.891366
H         1.717474       -1.650289        -0.008070
H         0.172519       -1.768127        -0.879358
O         -0.624908       0.754014        0.004876
O         1.604523       0.876586        -0.002404
C         -1.853284       -0.023770        -0.002563
H         -1.929024       -0.629260        -0.909776
H         -2.648078       0.718430        0.011282
H         -1.923737       -0.657269        0.885735

1 2 6 8 F
 