%chk=/home/unibas/boittier/RDKit_G2/N.pdb/SCAN_1_2_6_8_S_17_20.0/0_SCAN_1_2_6_8_F/N.pdb.chk
%nproc=8
%mem=16GB
#p wB97XD/6-31+G Opt=ModRedun

N.pdb

0 1
C         2.087463       1.139941        -0.037246
C         1.488448       -0.220242        0.178487
H         1.424659       1.763440        -0.646459
H         3.053701       1.040486        -0.532598
H         2.219571       1.651285        0.923509
C         0.137713       -0.305445        0.896097
O         2.059172       -1.260316        -0.156976
C         -1.041420       -0.003915        0.011707
H         0.102910       0.394740        1.735459
H         0.015067       -1.323576        1.271668
F         -1.044933       1.318171        -0.439437
F         -2.240312       -0.190052        0.691679
F         -1.083923       -0.806551        -1.117802

1 2 6 8 F
 