%chk=/home/unibas/boittier/RDKit_G2/O.pdb/SCAN_1_2_6_8_S_17_20.0/7_SCAN_1_2_6_8_F/O.pdb.chk
%nproc=8
%mem=16GB
#p wB97XD/6-31+G Opt=ModRedun

O.pdb

0 1
C         0.790683       -1.322575        0.038143
C         0.596142       0.171880        0.014575
H         0.418858       -1.737017        0.980377
H         1.853781       -1.538264        -0.062488
H         0.255031       -1.813016        -0.781836
O         -0.665195       0.636506        0.328530
O         1.500021       0.978878        -0.152732
C         -1.846984       -0.054272        -0.168986
H         -1.827871       -0.100630        -1.261130
H         -2.685462       0.554855        0.160556
H         -1.931984       -1.059200        0.255744

1 2 6 8 F
 