%chk=/home/unibas/boittier/RDKit_G2/B.pdb/SCAN_1_2_3_4_S_17_20.0/0_SCAN_1_2_3_4_F/B.pdb.chk
%nproc=8
%mem=16GB
#p wB97XD/6-31+G Opt=ModRedun

B.pdb

0 1
C         -1.723826       -0.666174        0.000044
C         -0.520393       -0.082012        -0.000045
C         0.795468       -0.701364        -0.000053
C         1.963820       -0.034939        0.000064
H         -2.634870       -0.081614        0.000110
H         -1.806098       -1.746680        0.000094
F         -0.482590       1.338038        -0.000026
H         0.781196       -1.789080        -0.000173
H         2.003682       1.049072        0.000121
H         2.908983       -0.567110        0.000018

1 2 3 4 F
 