%chk=/home/unibas/boittier/RDKit_G2/O.pdb/SCAN_1_2_6_8_S_17_20.0/2_SCAN_1_2_6_8_F/O.pdb.chk
%nproc=8
%mem=16GB
#p wB97XD/6-31+G Opt=ModRedun

O.pdb

0 1
C         1.720396       -0.635458        -0.145286
C         0.496696       0.184910        0.120992
H         1.797541       -1.465533        0.560290
H         2.610879       -0.008988        -0.095209
H         1.632521       -1.061248        -1.150644
O         -0.606240       -0.600113        0.361017
O         0.422498       1.408141        0.020006
C         -1.884469       -0.164957        -0.202677
H         -2.192000       0.788785        0.228955
H         -2.587182       -0.952637        0.057204
H         -1.787567       -0.071574        -1.286953

1 2 6 8 F
 