%chk=/home/unibas/boittier/RDKit_G2/L.pdb/SCAN_1_2_3_4_S_17_20.0/L.pdb.chk
%nproc=8
%mem=16GB
#p B3LYP/6-31+G Opt=ModRedun

L.pdb

0 1
C 3.4225796454 -0.0503122488 -0.8992357959
C 2.0889998352 -0.0405517783 -1.0773852573
C 1.165482475 -0.0387529295 0.0636548055
O -0.073658273 -0.0299223158 -0.0456819761
H 1.6336716923 -0.0458981888 1.064975001
H 4.1172274101 -0.0517566775 -1.7327992696
H 3.8604576007 -0.0572006852 0.0972451744
H 1.6382396143 -0.0336051761 -2.066772682

1 2 3 4 S 17 20.0
 