%chk=/home/unibas/boittier/RDKit_G2/B.pdb/SCAN_1_2_3_4_S_17_20.0/4_SCAN_1_2_3_4_F/B.pdb.chk
%nproc=8
%mem=16GB
#p wB97XD/6-31+G Opt=ModRedun

B.pdb

0 1
C         -1.395362       -1.033020        0.141560
C         -0.492708       -0.083349        -0.088837
C         0.923665       -0.185121        -0.499882
C         1.952505       -0.075763        0.352850
H         -2.415257       -0.788222        0.413585
H         -1.118916       -2.077866        0.064988
F         -0.920334       1.278817        0.025229
H         1.108097       -0.321750        -1.564972
H         1.800183       0.074904        1.418109
H         2.980305       -0.132902        0.007088

1 2 3 4 F
 