%chk=/home/unibas/boittier/RDKit_G2/B.pdb/SCAN_1_2_3_4_S_17_20.0/7_SCAN_1_2_3_4_F/B.pdb.chk
%nproc=8
%mem=16GB
#p wB97XD/6-31+G Opt=ModRedun

B.pdb

0 1
C         -0.925148       -1.309846        -0.090400
C         -0.462991       -0.058246        -0.048581
C         0.881304       0.478077        -0.258660
C         2.008323       -0.103979        0.185985
H         -1.970936       -1.528534        0.086976
H         -0.256058       -2.132568        -0.310582
F         -1.408810       0.987938        0.170391
H         0.923225       1.428139        -0.787092
H         1.991650       -1.022252        0.766411
H         2.982488       0.327736        -0.019295

1 2 3 4 F
 