%chk=/home/unibas/boittier/RDKit_G2/O.pdb/SCAN_1_2_6_8_S_17_20.0/O.pdb.chk
%nproc=8
%mem=16GB
#p wB97XD/6-31+G Opt=ModRedun

O.pdb

0 1
C -3.0611004226 1.8273440314 1.4020694113
C -2.6573107238 0.8235388095 0.3675005394
H -3.3600764402 1.3128662203 2.3202616439
H -3.8962981129 2.4178433944 1.026572189
H -2.2187309423 2.4790315788 1.6469610603
O -1.534137751 0.1401247354 0.7404108241
O -3.2405542679 0.6045819959 -0.6949881006
C -1.0372038824 -0.8842065569 -0.1763878528
H -1.7914823259 -1.6614444991 -0.3116693104
H -0.1477160098 -1.2803385478 0.3071210449
H -0.7953891212 -0.4363411618 -1.141851449

1 2 6 8 S 17 20.0
 