%chk=/home/unibas/boittier/RDKit_G2/O.pdb/SCAN_1_2_6_8_S_17_20.0/1_SCAN_1_2_6_8_F/O.pdb.chk
%nproc=8
%mem=16GB
#p wB97XD/6-31+G Opt=ModRedun

O.pdb

0 1
C         1.784878       -0.557652        -0.078612
C         0.486487       0.171908        0.070597
H         1.833890       -1.410208        0.601867
H         2.614201       0.124966        0.106236
H         1.856920       -0.941837        -1.101515
O         -0.570477       -0.690343        0.177731
O         0.337702       1.393223        0.020786
C         -1.902556       -0.157543        -0.105138
H         -2.182655       0.583070        0.645599
H         -2.560893       -1.021796        -0.066121
H         -1.912126       0.302480        -1.095292

1 2 6 8 F
 