%chk=/home/unibas/boittier/RDKit_G2/L.pdb/SCAN_1_2_3_4_S_17_20.0/16_SCAN_1_2_3_4_F/L.pdb.chk
%nproc=8
%mem=16GB
#p wB97XD/6-31+G Opt=ModRedun

L.pdb

0 1
C         1.741226       0.150916        -0.139580
C         0.575008       -0.431227        0.191297
C         -0.686060       0.333724        0.196054
O         -1.765571       -0.125750        -0.214050
H         -0.616638       1.394557        0.497122
H         2.651652       -0.424185        -0.274576
H         1.820014       1.226053        -0.289162
H         0.488493       -1.510895        0.292388

1 2 3 4 F
 